0,5,255,204,83,894,750,471,942,5
5,0,10,863,51,252,423,285,622,634
255,5,0,5,469,890,257,401,579,966
204,863,5,0,5,585,766,607,964,23
83,51,469,5,0,5,666,456,476,67
894,252,890,585,5,0,5,514,63,935
750,423,257,766,666,5,0,5,936,740
471,285,401,607,456,514,5,0,5,298
942,622,579,964,476,63,936,5,0,5
5,634,966,23,67,935,740,298,5,0